c An instance of conditional planning (by rintanen@informatik.uni-freiburg.de)
p cnf 135 857
e 14 15 16 17 18 19 20 21 22 23 24 25 26 27 28 29 30 31 32 33 34 35 36 37 38 39 40 41 42 43 44 45 46 47 48 49 50 51 52 53 54 55 56 57 58 59 60 61 62 63 64 65 66 67 68 69 70 71 72 73 74 75 76 77 78 79 80 81 82 83 84 85 86 87 88 89 90 91 92 93 94 95 96 97 98 99 100 101 102 103 0
a 113 112 114 0
e 1 2 3 4 5 6 7 8 9 10 11 12 13 104 105 106 107 108 109 110 111 115 116 117 118 119 120 121 122 123 124 125 126 127 128 129 130 131 132 133 134 135 0
-112 -113 -115 114 0
-112 -113 -116 114 0
-112 -113 -117 114 0
-112 -113 -118 114 0
-112 -113 -119 114 0
-112 -113 114 120 0
-112 -113 -121 114 0
-112 -113 -122 114 0
-113 -114 -115 112 0
-113 -114 -116 112 0
-113 -114 -117 112 0
-113 -114 -118 112 0
-113 -114 112 119 0
-113 -114 -120 112 0
-113 -114 -121 112 0
-113 -114 -122 112 0
-113 -115 112 114 0
-113 -116 112 114 0
-113 -117 112 114 0
-113 112 114 118 0
-113 -119 112 114 0
-113 -120 112 114 0
-113 -121 112 114 0
-113 -122 112 114 0
-112 -114 -115 113 0
-112 -114 -116 113 0
-112 -114 113 117 0
-112 -114 -118 113 0
-112 -114 -119 113 0
-112 -114 -120 113 0
-112 -114 -121 113 0
-112 -114 -122 113 0
-112 -115 113 114 0
-112 113 114 116 0
-112 -117 113 114 0
-112 -118 113 114 0
-112 -119 113 114 0
-112 -120 113 114 0
-112 -121 113 114 0
-112 -122 113 114 0
-114 112 113 115 0
-114 -116 112 113 0
-114 -117 112 113 0
-114 -118 112 113 0
-114 -119 112 113 0
-114 -120 112 113 0
-114 -121 112 113 0
-114 -122 112 113 0
-115 112 113 114 0
-116 112 113 114 0
-117 112 113 114 0
-118 112 113 114 0
-119 112 113 114 0
-120 112 113 114 0
-121 112 113 114 0
112 113 114 122 0
-112 -113 -114 -115 0
-112 -113 -114 -116 0
-112 -113 -114 -117 0
-112 -113 -114 -118 0
-112 -113 -114 -119 0
-112 -113 -114 -120 0
-112 -113 -114 121 0
-112 -113 -114 -122 0
-123 0
-124 0
-125 0
-126 0
-127 0
-128 0
-129 0
-130 0
-131 0
-132 0
-133 0
-134 0
-135 0
-14 -135 0
-14 -127 0
-16 -128 0
-16 -135 0
-18 -129 0
-18 -135 0
-20 -130 0
-20 -135 0
-22 -131 0
-22 -135 0
-24 -132 0
-24 -135 0
-26 -133 0
-26 -135 0
-28 -134 0
-28 -135 0
-32 -123 0
-32 -127 0
-34 -123 0
-34 -128 0
-36 -123 0
-36 -129 0
-38 -123 0
-38 -130 0
-40 -123 0
-40 -131 0
-42 -123 0
-42 -132 0
-44 -123 0
-44 -133 0
-46 -123 0
-46 -134 0
-50 -124 0
-50 -127 0
-52 -124 0
-52 -128 0
-54 -124 0
-54 -129 0
-56 -124 0
-56 -130 0
-58 -124 0
-58 -131 0
-60 -124 0
-60 -132 0
-62 -124 0
-62 -133 0
-64 -124 0
-64 -134 0
-68 -125 0
-68 -127 0
-70 -125 0
-70 -128 0
-72 -125 0
-72 -129 0
-74 -125 0
-74 -130 0
-76 -125 0
-76 -131 0
-78 -125 0
-78 -132 0
-80 -125 0
-80 -133 0
-82 -125 0
-82 -134 0
-86 -126 0
-86 -127 0
-88 -126 0
-88 -128 0
-90 -126 0
-90 -129 0
-92 -126 0
-92 -130 0
-94 -126 0
-94 -131 0
-96 -126 0
-96 -132 0
-98 -126 0
-98 -133 0
-100 -126 0
-100 -134 0
-29 135 0
-47 123 0
-65 124 0
-83 125 0
-101 126 0
-14 2 0
-14 -104 0
-14 1 0
-16 3 0
-16 -105 0
-16 2 0
-18 4 0
-18 -106 0
-18 2 0
-20 5 0
-20 -107 0
-20 2 0
-22 6 0
-22 -108 0
-22 2 0
-24 7 0
-24 -109 0
-24 2 0
-26 8 0
-26 -110 0
-26 2 0
-28 9 0
-28 -111 0
-28 2 0
-32 10 0
-32 -104 0
-32 1 0
-34 10 0
-34 -105 0
-34 3 0
-36 10 0
-36 -106 0
-36 4 0
-38 10 0
-38 -107 0
-38 5 0
-40 10 0
-40 -108 0
-40 6 0
-42 10 0
-42 -109 0
-42 7 0
-44 10 0
-44 -110 0
-44 8 0
-46 10 0
-46 -111 0
-46 9 0
-50 11 0
-50 -104 0
-50 1 0
-52 11 0
-52 -105 0
-52 3 0
-54 11 0
-54 -106 0
-54 4 0
-56 11 0
-56 -107 0
-56 5 0
-58 11 0
-58 -108 0
-58 6 0
-60 11 0
-60 -109 0
-60 7 0
-62 11 0
-62 -110 0
-62 8 0
-64 11 0
-64 -111 0
-64 9 0
-68 12 0
-68 -104 0
-68 1 0
-70 12 0
-70 -105 0
-70 3 0
-72 12 0
-72 -106 0
-72 4 0
-74 12 0
-74 -107 0
-74 5 0
-76 12 0
-76 -108 0
-76 6 0
-78 12 0
-78 -109 0
-78 7 0
-80 12 0
-80 -110 0
-80 8 0
-82 12 0
-82 -111 0
-82 9 0
-86 13 0
-86 -104 0
-86 1 0
-88 13 0
-88 -105 0
-88 3 0
-90 13 0
-90 -106 0
-90 4 0
-92 13 0
-92 -107 0
-92 5 0
-94 13 0
-94 -108 0
-94 6 0
-96 13 0
-96 -109 0
-96 7 0
-98 13 0
-98 -110 0
-98 8 0
-100 13 0
-100 -111 0
-100 9 0
-2 -29 0
-10 -47 0
-11 -65 0
-12 -83 0
-13 -101 0
-1 14 32 50 68 86 127 0
-127 1 0
-2 14 16 18 20 22 24 26 28 135 0
-135 2 29 0
-104 122 0
-122 14 32 50 68 86 104 0
-3 16 34 52 70 88 128 0
-128 3 0
-105 115 0
-115 16 34 52 70 88 105 0
-4 18 36 54 72 90 129 0
-129 4 0
-106 116 0
-116 18 36 54 72 90 106 0
-5 20 38 56 74 92 130 0
-130 5 0
-107 117 0
-117 20 38 56 74 92 107 0
-6 22 40 58 76 94 131 0
-131 6 0
-108 118 0
-118 22 40 58 76 94 108 0
-7 24 42 60 78 96 132 0
-132 7 0
-109 119 0
-119 24 42 60 78 96 109 0
-8 26 44 62 80 98 133 0
-133 8 0
-110 120 0
-120 26 44 62 80 98 110 0
-9 28 46 64 82 100 134 0
-134 9 0
-111 121 0
-121 28 46 64 82 100 111 0
-10 32 34 36 38 40 42 44 46 123 0
-123 10 47 0
-11 50 52 54 56 58 60 62 64 124 0
-124 11 65 0
-12 68 70 72 74 76 78 80 82 125 0
-125 12 83 0
-13 86 88 90 92 94 96 98 100 126 0
-126 13 101 0
-14 -16 0
-15 -17 0
-14 -18 0
-15 -19 0
-14 -20 0
-15 -21 0
-14 -22 0
-15 -23 0
-14 -24 0
-15 -25 0
-14 -26 0
-15 -27 0
-14 -28 0
-15 -30 0
-14 -32 0
-15 -33 0
-14 -50 0
-15 -51 0
-14 -68 0
-15 -69 0
-14 -86 0
-15 -87 0
-14 -29 0
-15 -31 0
-16 -18 0
-17 -19 0
-16 -20 0
-17 -21 0
-16 -22 0
-17 -23 0
-16 -24 0
-17 -25 0
-16 -26 0
-17 -27 0
-16 -28 0
-17 -30 0
-16 -34 0
-17 -35 0
-16 -52 0
-17 -53 0
-16 -70 0
-17 -71 0
-16 -88 0
-17 -89 0
-16 -29 0
-17 -31 0
-18 -20 0
-19 -21 0
-18 -22 0
-19 -23 0
-18 -24 0
-19 -25 0
-18 -26 0
-19 -27 0
-18 -28 0
-19 -30 0
-18 -36 0
-19 -37 0
-18 -54 0
-19 -55 0
-18 -72 0
-19 -73 0
-18 -90 0
-19 -91 0
-18 -29 0
-19 -31 0
-20 -22 0
-21 -23 0
-20 -24 0
-21 -25 0
-20 -26 0
-21 -27 0
-20 -28 0
-21 -30 0
-20 -38 0
-21 -39 0
-20 -56 0
-21 -57 0
-20 -74 0
-21 -75 0
-20 -92 0
-21 -93 0
-20 -29 0
-21 -31 0
-22 -24 0
-23 -25 0
-22 -26 0
-23 -27 0
-22 -28 0
-23 -30 0
-22 -40 0
-23 -41 0
-22 -58 0
-23 -59 0
-22 -76 0
-23 -77 0
-22 -94 0
-23 -95 0
-22 -29 0
-23 -31 0
-24 -26 0
-25 -27 0
-24 -28 0
-25 -30 0
-24 -42 0
-25 -43 0
-24 -60 0
-25 -61 0
-24 -78 0
-25 -79 0
-24 -96 0
-25 -97 0
-24 -29 0
-25 -31 0
-26 -28 0
-27 -30 0
-26 -44 0
-27 -45 0
-26 -62 0
-27 -63 0
-26 -80 0
-27 -81 0
-26 -98 0
-27 -99 0
-26 -29 0
-27 -31 0
-28 -46 0
-30 -48 0
-28 -64 0
-30 -66 0
-28 -82 0
-30 -84 0
-28 -100 0
-30 -102 0
-28 -29 0
-30 -31 0
-32 -34 0
-33 -35 0
-32 -36 0
-33 -37 0
-32 -38 0
-33 -39 0
-32 -40 0
-33 -41 0
-32 -42 0
-33 -43 0
-32 -44 0
-33 -45 0
-32 -46 0
-33 -48 0
-32 -50 0
-33 -51 0
-32 -68 0
-33 -69 0
-32 -86 0
-33 -87 0
-32 -47 0
-33 -49 0
-34 -36 0
-35 -37 0
-34 -38 0
-35 -39 0
-34 -40 0
-35 -41 0
-34 -42 0
-35 -43 0
-34 -44 0
-35 -45 0
-34 -46 0
-35 -48 0
-34 -52 0
-35 -53 0
-34 -70 0
-35 -71 0
-34 -88 0
-35 -89 0
-34 -47 0
-35 -49 0
-36 -38 0
-37 -39 0
-36 -40 0
-37 -41 0
-36 -42 0
-37 -43 0
-36 -44 0
-37 -45 0
-36 -46 0
-37 -48 0
-36 -54 0
-37 -55 0
-36 -72 0
-37 -73 0
-36 -90 0
-37 -91 0
-36 -47 0
-37 -49 0
-38 -40 0
-39 -41 0
-38 -42 0
-39 -43 0
-38 -44 0
-39 -45 0
-38 -46 0
-39 -48 0
-38 -56 0
-39 -57 0
-38 -74 0
-39 -75 0
-38 -92 0
-39 -93 0
-38 -47 0
-39 -49 0
-40 -42 0
-41 -43 0
-40 -44 0
-41 -45 0
-40 -46 0
-41 -48 0
-40 -58 0
-41 -59 0
-40 -76 0
-41 -77 0
-40 -94 0
-41 -95 0
-40 -47 0
-41 -49 0
-42 -44 0
-43 -45 0
-42 -46 0
-43 -48 0
-42 -60 0
-43 -61 0
-42 -78 0
-43 -79 0
-42 -96 0
-43 -97 0
-42 -47 0
-43 -49 0
-44 -46 0
-45 -48 0
-44 -62 0
-45 -63 0
-44 -80 0
-45 -81 0
-44 -98 0
-45 -99 0
-44 -47 0
-45 -49 0
-46 -64 0
-48 -66 0
-46 -82 0
-48 -84 0
-46 -100 0
-48 -102 0
-46 -47 0
-48 -49 0
-50 -52 0
-51 -53 0
-50 -54 0
-51 -55 0
-50 -56 0
-51 -57 0
-50 -58 0
-51 -59 0
-50 -60 0
-51 -61 0
-50 -62 0
-51 -63 0
-50 -64 0
-51 -66 0
-50 -68 0
-51 -69 0
-50 -86 0
-51 -87 0
-50 -65 0
-51 -67 0
-52 -54 0
-53 -55 0
-52 -56 0
-53 -57 0
-52 -58 0
-53 -59 0
-52 -60 0
-53 -61 0
-52 -62 0
-53 -63 0
-52 -64 0
-53 -66 0
-52 -70 0
-53 -71 0
-52 -88 0
-53 -89 0
-52 -65 0
-53 -67 0
-54 -56 0
-55 -57 0
-54 -58 0
-55 -59 0
-54 -60 0
-55 -61 0
-54 -62 0
-55 -63 0
-54 -64 0
-55 -66 0
-54 -72 0
-55 -73 0
-54 -90 0
-55 -91 0
-54 -65 0
-55 -67 0
-56 -58 0
-57 -59 0
-56 -60 0
-57 -61 0
-56 -62 0
-57 -63 0
-56 -64 0
-57 -66 0
-56 -74 0
-57 -75 0
-56 -92 0
-57 -93 0
-56 -65 0
-57 -67 0
-58 -60 0
-59 -61 0
-58 -62 0
-59 -63 0
-58 -64 0
-59 -66 0
-58 -76 0
-59 -77 0
-58 -94 0
-59 -95 0
-58 -65 0
-59 -67 0
-60 -62 0
-61 -63 0
-60 -64 0
-61 -66 0
-60 -78 0
-61 -79 0
-60 -96 0
-61 -97 0
-60 -65 0
-61 -67 0
-62 -64 0
-63 -66 0
-62 -80 0
-63 -81 0
-62 -98 0
-63 -99 0
-62 -65 0
-63 -67 0
-64 -82 0
-66 -84 0
-64 -100 0
-66 -102 0
-64 -65 0
-66 -67 0
-68 -70 0
-69 -71 0
-68 -72 0
-69 -73 0
-68 -74 0
-69 -75 0
-68 -76 0
-69 -77 0
-68 -78 0
-69 -79 0
-68 -80 0
-69 -81 0
-68 -82 0
-69 -84 0
-68 -86 0
-69 -87 0
-68 -83 0
-69 -85 0
-70 -72 0
-71 -73 0
-70 -74 0
-71 -75 0
-70 -76 0
-71 -77 0
-70 -78 0
-71 -79 0
-70 -80 0
-71 -81 0
-70 -82 0
-71 -84 0
-70 -88 0
-71 -89 0
-70 -83 0
-71 -85 0
-72 -74 0
-73 -75 0
-72 -76 0
-73 -77 0
-72 -78 0
-73 -79 0
-72 -80 0
-73 -81 0
-72 -82 0
-73 -84 0
-72 -90 0
-73 -91 0
-72 -83 0
-73 -85 0
-74 -76 0
-75 -77 0
-74 -78 0
-75 -79 0
-74 -80 0
-75 -81 0
-74 -82 0
-75 -84 0
-74 -92 0
-75 -93 0
-74 -83 0
-75 -85 0
-76 -78 0
-77 -79 0
-76 -80 0
-77 -81 0
-76 -82 0
-77 -84 0
-76 -94 0
-77 -95 0
-76 -83 0
-77 -85 0
-78 -80 0
-79 -81 0
-78 -82 0
-79 -84 0
-78 -96 0
-79 -97 0
-78 -83 0
-79 -85 0
-80 -82 0
-81 -84 0
-80 -98 0
-81 -99 0
-80 -83 0
-81 -85 0
-82 -100 0
-84 -102 0
-82 -83 0
-84 -85 0
-86 -88 0
-87 -89 0
-86 -90 0
-87 -91 0
-86 -92 0
-87 -93 0
-86 -94 0
-87 -95 0
-86 -96 0
-87 -97 0
-86 -98 0
-87 -99 0
-86 -100 0
-87 -102 0
-86 -101 0
-87 -103 0
-88 -90 0
-89 -91 0
-88 -92 0
-89 -93 0
-88 -94 0
-89 -95 0
-88 -96 0
-89 -97 0
-88 -98 0
-89 -99 0
-88 -100 0
-89 -102 0
-88 -101 0
-89 -103 0
-90 -92 0
-91 -93 0
-90 -94 0
-91 -95 0
-90 -96 0
-91 -97 0
-90 -98 0
-91 -99 0
-90 -100 0
-91 -102 0
-90 -101 0
-91 -103 0
-92 -94 0
-93 -95 0
-92 -96 0
-93 -97 0
-92 -98 0
-93 -99 0
-92 -100 0
-93 -102 0
-92 -101 0
-93 -103 0
-94 -96 0
-95 -97 0
-94 -98 0
-95 -99 0
-94 -100 0
-95 -102 0
-94 -101 0
-95 -103 0
-96 -98 0
-97 -99 0
-96 -100 0
-97 -102 0
-96 -101 0
-97 -103 0
-98 -100 0
-99 -102 0
-98 -101 0
-99 -103 0
-100 -101 0
-102 -103 0
-104 0
-105 0
-106 0
-107 0
-108 0
-109 0
-110 0
-111 0
